[runlim] version:		1.10
[runlim] time limit:		311040000 seconds
[runlim] real time limit:	900 seconds
[runlim] space limit:		6000 MB
[runlim] argv[0]:		python3
[runlim] argv[1]:		cp.py
[runlim] argv[2]:		TUD200.2
[runlim] start:			Sun Jan 18 16:26:30 2026
[runlim] main pid:		602
[runlim] sample:		9.9 time, 10.1 real, 661.5 MB
[runlim] sample:		19.8 time, 20.1 real, 2242.9 MB
Building CP model...
Build time: 5.74s
Solving CP Optimizer...
 ! --------------------------------------------------- CP Optimizer 22.1.1.0 --
 ! Minimization problem - 7728 variables, 713710 constraints
 ! Presolve      : 713912 extractables eliminated
 ! LogVerbosity         = Terse
 ! Initial process time : 7.08s (7.05s extraction + 0.04s propagation)
 !  . Log search space  : 7728.0 (before), 7728.0 (after)
 !  . Memory usage      : 97.9 MB (before), 97.9 MB (after)
 ! Using parallel search with 12 workers.
 ! ----------------------------------------------------------------------------
 !          Best Branches  Non-fixed    W       Branch decision
                        0       7728                 -
 + New bound is 0
[runlim] end:			Sun Jan 18 16:26:54 2026
[runlim] status:		out of memory
[runlim] result:		3
[runlim] children:		187
[runlim] real:			24.63 seconds
[runlim] time:			56.50 seconds
[runlim] space:			6091.8 MB
[runlim] samples:		245
